
Gurobi 7.5.2 (linux64) logging started Sat Jun 23 18:19:06 2018

Changed value of parameter LogFile to result/ilp/simNo_10-n_100-m_40-s_4-minVAF_0.05-cov_2000-k_2-fn_0.05-fp_0.0001-na_0.15.ILP.gurobiSolverLog
   Prev: gurobi.log  Default: 
Changed value of parameter TimeLimit to 86400.0
   Prev: 1e+100  Min: 0.0  Max: 1e+100  Default: 1e+100
Optimize a model with 1265601 rows, 330440 columns and 3489120 nonzeros
Variable types: 0 continuous, 330440 integer (330440 binary)
Coefficient statistics:
  Matrix range     [5e-04, 3e+00]
  Objective range  [1e-01, 9e+00]
  Bounds range     [1e+00, 1e+00]
  RHS range        [3e-01, 2e+00]
Found heuristic solution: objective -17122.10534
Presolve removed 343381 rows and 215771 columns (presolve time = 7s) ...
Presolve removed 343839 rows and 215771 columns (presolve time = 10s) ...
Presolve removed 343839 rows and 215771 columns (presolve time = 15s) ...
Presolve removed 343839 rows and 215771 columns (presolve time = 20s) ...
Presolve removed 343839 rows and 215771 columns (presolve time = 25s) ...
Presolve removed 343839 rows and 215771 columns (presolve time = 31s) ...
Presolve removed 343839 rows and 215771 columns (presolve time = 35s) ...
Presolve removed 343839 rows and 215771 columns (presolve time = 40s) ...
Presolve removed 343839 rows and 215771 columns (presolve time = 47s) ...
Presolve removed 343839 rows and 215771 columns
Presolve time: 49.90s
Presolved: 921762 rows, 114669 columns, 2555880 nonzeros
Variable types: 0 continuous, 114669 integer (114669 binary)
Presolve removed 0 rows and 0 columns (presolve time = 5s) ...
Presolved: 114669 rows, 1036431 columns, 2670549 nonzeros

Presolve removed 114669 rows and 1036431 columns

Root simplex log...

Iteration    Objective       Primal Inf.    Dual Inf.      Time
       0    5.3269785e+00   0.000000e+00   1.144890e+05     62s
   11070   -1.7720103e+02   0.000000e+00   4.773240e+04     65s
   16245   -2.0616533e+02   0.000000e+00   0.000000e+00     68s
   16245   -2.0616533e+02   0.000000e+00   0.000000e+00     70s

Root relaxation: objective -2.061653e+02, 16245 iterations, 16.77 seconds
Total elapsed time = 104.84s
Total elapsed time = 123.66s
Total elapsed time = 141.85s

    Nodes    |    Current Node    |     Objective Bounds      |     Work
 Expl Unexpl |  Obj  Depth IntInf | Incumbent    BestBd   Gap | It/Node Time

     0     0 -206.16533    0  689 -17122.105 -206.16533  98.8%     -  156s
H    0     0                    -251.6149337 -206.16533  18.1%     -  170s
     0     0 -215.59950    0  666 -251.61493 -215.59950  14.3%     -  194s
     0     0 -219.73483    0  517 -251.61493 -219.73483  12.7%     -  245s
H    0     0                    -251.6144137 -219.73483  12.7%     -  251s
     0     0 -219.73483    0  517 -251.61441 -219.73483  12.7%     -  260s
     0     0 -222.68828    0  492 -251.61441 -222.68828  11.5%     -  291s
     0     0 -224.25186    0  449 -251.61441 -224.25186  10.9%     -  319s
     0     0 -225.77676    0  745 -251.61441 -225.77676  10.3%     -  351s
     0     0 -225.77676    0  749 -251.61441 -225.77676  10.3%     -  367s
     0     0 -226.46988    0  749 -251.61441 -226.46988  10.0%     -  388s
     0     0 -227.26710    0  768 -251.61441 -227.26710  9.68%     -  407s
     0     0 -227.30452    0  768 -251.61441 -227.30452  9.66%     -  417s
     0     0 -229.21174    0  721 -251.61441 -229.21174  8.90%     -  437s
     0     0 -229.44710    0  742 -251.61441 -229.44710  8.81%     -  453s
     0     0 -229.45835    0  732 -251.61441 -229.45835  8.81%     -  463s
     0     0 -229.45835    0  724 -251.61441 -229.45835  8.81%     -  472s
     0     0 -230.28153    0  593 -251.61441 -230.28153  8.48%     -  495s
     0     0 -230.28153    0  670 -251.61441 -230.28153  8.48%     -  509s
     0     0 -230.47276    0  692 -251.61441 -230.47276  8.40%     -  525s
     0     0 -231.44477    0  785 -251.61441 -231.44477  8.02%     -  542s
     0     0 -231.44477    0  791 -251.61441 -231.44477  8.02%     -  550s
     0     0 -232.74235    0  770 -251.61441 -232.74235  7.50%     -  570s
     0     0 -233.00295    0  805 -251.61441 -233.00295  7.40%     -  587s
     0     0 -233.04018    0  800 -251.61441 -233.04018  7.38%     -  597s
     0     0 -233.04018    0  801 -251.61441 -233.04018  7.38%     -  605s
     0     0 -235.79508    0  797 -251.61441 -235.79508  6.29%     -  628s
     0     0 -235.97377    0  792 -251.61441 -235.97377  6.22%     -  644s
     0     0 -235.97377    0  792 -251.61441 -235.97377  6.22%     -  652s
     0     0 -235.97377    0  795 -251.61441 -235.97377  6.22%     -  667s
     0     0 -235.97377    0  796 -251.61441 -235.97377  6.22%     -  687s
     0     0 -236.08414    0  801 -251.61441 -236.08414  6.17%     -  700s
     0     0 -236.08414    0  800 -251.61441 -236.08414  6.17%     -  707s
     0     0 -236.08414    0  743 -251.61441 -236.08414  6.17%     -  792s
     0     0 -236.08414    0  778 -251.61441 -236.08414  6.17%     -  805s
     0     0 -236.08414    0  782 -251.61441 -236.08414  6.17%     -  820s
     0     0 -236.08414    0  788 -251.61441 -236.08414  6.17%     -  832s
     0     0 -236.08414    0  694 -251.61441 -236.08414  6.17%     -  894s
     0     0 -236.08414    0  783 -251.61441 -236.08414  6.17%     -  906s
     0     0 -236.08414    0  774 -251.61441 -236.08414  6.17%     -  946s
     0     0 -236.08414    0  774 -251.61441 -236.08414  6.17%     -  966s
     0     2 -236.08535    0  771 -251.61441 -236.08535  6.17%     - 1074s
     1     3 -236.38373    1  628 -251.61441 -236.09545  6.17%  1967 1078s
     2     4 -246.77240    2  317 -251.61441 -236.09545  6.17%  1353 1090s
     5     7 -249.22304    4  200 -251.61441 -236.09545  6.17%   599 1096s
     8     6 -249.22304    4  200 -251.61441 -236.09545  6.17%   428 1100s
    11     5 -239.77490    1  802 -251.61441 -236.44115  6.03%   684 1123s
    12     6 -239.77503    2  805 -251.61441 -236.44115  6.03%   634 1126s
    14     8 -239.77538    4  805 -251.61441 -236.44115  6.03%   566 1131s
    16    10 -239.77538    6  788 -251.61441 -236.44115  6.03%   509 1135s
    17    11 -239.97945    7  738 -251.61441 -236.44115  6.03%   504 1142s
    18    12 -241.06521    8  718 -251.61441 -236.44115  6.03%   499 1147s
    19    13 -242.85171    9  572 -251.61441 -236.44115  6.03%   477 1150s
    21    15 -247.58847   11  471 -251.61441 -236.44115  6.03%   441 1156s
    25    13     cutoff   12      -251.61441 -236.44115  6.03%   381 1160s
    28    14     cutoff   12      -251.61441 -236.44115  6.03%   349 1165s
    32    16 -249.93385   15  260 -251.61441 -236.44115  6.03%   310 1170s
    37    14 -246.87818    2  276 -251.61441 -239.77538  4.71%   300 1186s
    39    14     cutoff    4      -251.61441 -239.77538  4.71%   292 1190s
    43    12     cutoff    4      -251.61441 -239.77538  4.71%   270 1195s
    44    13 -243.03511    5  725 -251.61441 -239.77538  4.71%   277 1206s
    45    12     cutoff    6      -251.61441 -239.77538  4.71%   278 1210s
    47    12 -243.81690    6  621 -251.61441 -239.77543  4.71%   285 1220s
    49    10     cutoff    7      -251.61441 -239.77543  4.71%   285 1226s
    50    11 -243.81576    2  603 -251.61441 -239.77569  4.71%   292 1236s
    52     9     cutoff    3      -251.61441 -239.77569  4.71%   302 1242s
    53    10 -245.48502    4  619 -251.61441 -239.77574  4.71%   312 1254s
    54     9     cutoff    5      -251.61441 -239.77574  4.71%   314 1259s
    55     8     cutoff    5      -251.61441 -239.77574  4.71%   316 1261s
    56     9 -244.59787    3  721 -251.61441 -239.77613  4.70%   326 1275s
    58     7     cutoff    4      -251.61441 -239.77613  4.70%   331 1281s
    59     8 -243.81690    7  673 -251.61441 -240.04926  4.60%   357 1291s
    61     6     cutoff    8      -251.61441 -240.04926  4.60%   357 1299s
    62     5     cutoff    8      -251.61441 -241.06523  4.19%   358 1303s
    63     4     cutoff    9      -251.61441 -242.96317  3.44%   360 1308s
    65     6 -248.32427   11  409 -251.61441 -245.52098  2.42%   352 1312s
    67     7 -251.44481   13  576 -251.61441 -245.52098  2.42%   344 1316s
    71     6 -249.88786   11  459 -251.61441 -247.48639  1.64%   326 1320s
    76     3     cutoff    5      -251.61441 -247.54526  1.62%   310 1325s
    80     3 -250.71564   12  209 -251.61441 -249.42148  0.87%   298 1331s
    83     4 -251.49744   15  268 -251.61441 -249.42148  0.87%   290 1336s

Cutting planes:
  Gomory: 2
  Zero half: 79

Explored 88 nodes (80293 simplex iterations) in 1339.61 seconds
Thread count was 1 (of 80 available processors)

Solution count 3: -251.614 -251.615 -17122.1 

Optimal solution found (tolerance 1.00e-04)
Best objective -2.516144136867e+02, best bound -2.516144136867e+02, gap 0.0000%
